(set-logic QF_S)
(declare-fun var_0xINPUT_104706 () String)
(assert (and (not (= var_0xINPUT_104706 "EMy6QEb2YT")) (= (len var_0xINPUT_104706) 0) (not (= var_0xINPUT_104706 "Example:")) (not (= var_0xINPUT_104706 "EMy6QEb2YT"))))
(check-sat var_0xINPUT_104706)